% demand
num_movements = 48;
loading_factor = [1100, 1600, 1000, 1000, 1250, 1100, 1400, 1850, 1450, 1550, 1000, 1900, 1500, 850, 1000, 1500, 1050, 1150, 1100, 1750, 950, 1500, 1600, 1650, 1450, 1400, 850, 1100, 1800, 950, 1250, 1900, 1650, 1650, 1550, 1650, 1500, 1050, 1950, 850, 1500, 1000, 1650, 1300, 1300, 1000, 1100, 900];
pickup_time = [0, 0, 0, 0, 0, 0, 0, 0, 1, 1, 1, 1, 1, 1, 3, 3, 3, 3, 3, 4, 4, 4, 4, 4, 5, 5, 7, 7, 7, 7, 8, 9, 9, 10, 10, 10, 11, 11, 11, 11, 11, 11, 11, 11, 12, 12, 12, 12];
delivery_time = [1, 1, 1, 3, 1, 3, 1, 1, 4, 3, 4, 3, 3, 4, 6, 4, 4, 6, 4, 5, 6, 6, 6, 5, 10, 6, 10, 11, 10, 10, 10, 11, 11, 11, 11, 11, 12, 13, 13, 12, 12, 12, 13, 13, 13, 13, 13, 13];

% transporter definition
total_capacity = 11000;
num_decks = 4;
capacity = [3000, 3000, 1000, 4000];

% ways out of decks
num_ways_out = 2;
paths_out = array3d(decks, ways_out, decks, [
% ways out of deck d1
2, 4, 0, 0, 3, 4, 0, 0, 

% ways out of deck d2
4, 0, 0, 0, 0, 0, 0, 0,	

% ways out of deck d3
4, 0, 0, 0, 0, 0, 0, 0,	

% ways out of deck d4
0, 0, 0, 0,	0, 0, 0, 0,	

]);

